0 103 
1 103 
2 103 
3 101 
4 98 
5 94 
6 92 
7 88 
8 88 
9 88 
10 93 
11 89 
12 89 
13 85 
14 83 
15 83 
16 81 
17 78 
18 74 
19 72 
20 73 
21 73 
22 72 
23 63 
24 63 
25 69 
26 70 
27 68 
28 67 
29 64 
30 59 
31 57 
32 54 
33 53 
34 47 
35 50 
36 47 
37 50 
38 46 
39 45 
40 43 
41 39 
42 35 
43 32 
44 33 
45 31 
46 29 
47 27 
48 28 
49 26 
50 26 
51 24 
52 23 
53 25 
54 23 
55 23 
56 23 
57 20 
58 16 
59 14 
60 13 
61 12 
62 11 
63 10 
64 9 
65 7 
66 6 
67 6 
68 6 
69 5 
70 4 
71 4 
72 3 
73 2 
74 0 
75 0 
76 0 
77 0 

